HUN,8,6,47
5,22,4,38,2,65,1,1,3,41,0,8
5,38,4,84,3,32,0,6,1,94,2,13
0,89,5,45,4,50,2,90,1,47,3,40
3,60,5,10,4,63,2,55,0,81,1,25
2,64,0,82,3,37,4,61,5,24,1,80
1,87,4,36,3,78,0,81,2,91,5,19
2,50,4,33,1,78,0,32,5,72,3,31
0,38,3,67,2,60,5,52,1,42,4,10
